c clasp version 2.1.1
c Reading from p51.cnf
c Solving...
s SATISFIABLE

c Models        : 1+    
c Time          : 2.304s (Solving: 0.53s 1st Model: 0.53s Unsat: 0.00s)
c CPU Time      : 2.290s
c Choices       : 19809
c Conflicts     : 915
c Restarts      : 3      (Average: 305.00 Last: 9)

c Variables     : 245250 (Eliminated: 77208 Frozen:    0)
c Constraints   : 275413 (Binary: 64.9% Ternary: 33.6% Other:  1.5%)
c Lemmas        : 915    (Binary:  0.5% Ternary:  0.5% Other: 98.9%)
c   Conflict    : 915    (Average Length: 47.6) 
c   Loop        : 0      (Average Length: 0.0) 
c   Other       : 0      (Average Length: 0.0)
c   Deleted     : 0     
